optimizer.lp
Maximize
0.8796 w1 + 1.8603 w2 + 0.8172 w3 + 0.6946 w4 + 0.6169 w5 + 0.4668 w6 + 1.2928 w7 + 1.4788 w8 + 0.6031 w9
Subject To
weight: w1 + w2 + w3 + w4 + w5 + w6 + w7 + w8 + w9 = 1000
beta: 0.911626 w1 + 1.22786 w2 + 1.19568 w3 + 0.72104 w4 + 0.761493 w5 + 0.737282 w6 + 0.385363 w7 + 0.413866 w8 +1.13999 w9 <= 1350
Bounds
10 < w1 <= 200
10 < w2 <= 200
10 < w3 <= 200
10 < w4 <= 200
10 < w5 <= 200
10 < w6 <= 200
10 < w7 <= 200
10 < w8 <= 200
10 < w9 <= 200
Integers
w1 w2 w3 w4 w5 w6 w7 w8 w9
End
