optimizer.sol
# Objective value = 1.2568660000000000e+03
w1 200
w2 200
w3 160
w4 10
w5 10
w6 10
w7 200
w8 200
w9 10
